; ADD DUP1 MLOAD SWAP1 POP => SWAP1 ADD MLOAD
(set-option :produce-proofs true)
; 
(set-info :status unknown)
(declare-fun storage_t ((_ BitVec 256) (_ BitVec 256) (_ BitVec 256) Int (_ BitVec 256)) (_ BitVec 256))
(declare-fun storage_s ((_ BitVec 256) (_ BitVec 256) (_ BitVec 256) Int (_ BitVec 256)) (_ BitVec 256))
(declare-fun exc_halt_t (Int) Bool)
(declare-fun exc_halt_s (Int) Bool)
(declare-fun stack_t ((_ BitVec 256) (_ BitVec 256) (_ BitVec 256) Int (_ BitVec 6)) (_ BitVec 256))
(declare-fun stack_s ((_ BitVec 256) (_ BitVec 256) (_ BitVec 256) Int (_ BitVec 6)) (_ BitVec 256))
(declare-fun sc_t (Int) (_ BitVec 6))
(declare-fun sc_s (Int) (_ BitVec 6))
(declare-fun used_gas_t ((_ BitVec 256) (_ BitVec 256) (_ BitVec 256) Int) Int)
(declare-fun used_gas_s ((_ BitVec 256) (_ BitVec 256) (_ BitVec 256) Int) Int)
(declare-fun f_MLOAD ((_ BitVec 256) (_ BitVec 256) (_ BitVec 256) (_ BitVec 256)) (_ BitVec 256))
(assert
 (exists ((x_0 (_ BitVec 256)) (x_1 (_ BitVec 256)) (x_MLOAD_0 (_ BitVec 256)) )(let (($x10867 (forall ((w (_ BitVec 256)) )(let ((?x6699 (storage_t x_0 x_1 x_MLOAD_0 3 w)))
 (let ((?x2399 (storage_s x_0 x_1 x_MLOAD_0 5 w)))
 (= ?x2399 ?x6699))))
 ))
 (let (($x6783 (exc_halt_t 3)))
 (let (($x11317 (exc_halt_s 5)))
 (let (($x11613 (= $x11317 $x6783)))
 (let (($x1539 (forall ((n (_ BitVec 6)) )(let ((?x11248 (stack_t x_0 x_1 x_MLOAD_0 3 n)))
 (let ((?x2086 (stack_s x_0 x_1 x_MLOAD_0 5 n)))
 (let (($x7867 (= ?x2086 ?x11248)))
 (let ((?x6438 (sc_t 3)))
 (let (($x7001 (bvsle ?x6438 n)))
 (or $x7001 $x7867)))))))
 ))
 (let ((?x6438 (sc_t 3)))
 (let ((?x4319 (sc_s 5)))
 (let (($x7281 (= ?x4319 ?x6438)))
 (let (($x2459 (not (and $x7281 $x1539 $x11613 $x10867))))
 (let ((?x136 (used_gas_t x_0 x_1 x_MLOAD_0 0)))
 (let ((?x5127 (used_gas_s x_0 x_1 x_MLOAD_0 0)))
 (let (($x3688 (= ?x5127 ?x136)))
 (let (($x10648 (forall ((w (_ BitVec 256)) )(let ((?x9986 (storage_t x_0 x_1 x_MLOAD_0 0 w)))
 (let ((?x6876 (storage_s x_0 x_1 x_MLOAD_0 0 w)))
 (= ?x6876 ?x9986))))
 ))
 (let (($x56 (exc_halt_t 0)))
 (let (($x57 (exc_halt_s 0)))
 (let (($x58 (= $x57 $x56)))
 (let (($x9272 (forall ((n (_ BitVec 6)) )(let ((?x160 (stack_t x_0 x_1 x_MLOAD_0 0 n)))
 (let ((?x8095 (stack_s x_0 x_1 x_MLOAD_0 0 n)))
 (let (($x9503 (= ?x8095 ?x160)))
 (let ((?x63 (sc_t 0)))
 (let (($x5499 (bvsle ?x63 n)))
 (or $x5499 $x9503)))))))
 ))
 (let ((?x63 (sc_t 0)))
 (let ((?x72 (sc_s 0)))
 (let (($x73 (= ?x72 ?x63)))
 (let (($x9665 (= $x6783 (or (exc_halt_t 2) (not (bvsle (_ bv0 6) (bvadd (_ bv63 6) (sc_t 2))))))))
 (let (($x3153 (forall ((w (_ BitVec 256)) )(let ((?x5606 (storage_t x_0 x_1 x_MLOAD_0 2 w)))
 (let ((?x6699 (storage_t x_0 x_1 x_MLOAD_0 3 w)))
 (= ?x6699 ?x5606))))
 ))
 (let (($x5609 (forall ((n (_ BitVec 6)) )(let ((?x8849 (stack_t x_0 x_1 x_MLOAD_0 2 n)))
 (let ((?x11248 (stack_t x_0 x_1 x_MLOAD_0 3 n)))
 (let (($x1455 (= ?x11248 ?x8849)))
 (or $x1455 (bvsle (bvadd (_ bv63 6) (sc_t 2)) n))))))
 ))
 (let ((?x2714 (sc_t 2)))
 (let (($x5711 (= ?x6438 ?x2714)))
 (let ((?x5579 (used_gas_t x_0 x_1 x_MLOAD_0 3)))
 (let (($x567 (= ?x5579 (+ 3 (used_gas_t x_0 x_1 x_MLOAD_0 2)))))
 (let ((?x9853 (bvadd (_ bv63 6) ?x2714)))
 (let ((?x6495 (stack_t x_0 x_1 x_MLOAD_0 2 ?x9853)))
 (let ((?x7970 (bvadd (_ bv63 6) ?x6438)))
 (let ((?x3715 (stack_t x_0 x_1 x_MLOAD_0 3 ?x7970)))
 (let (($x2163 (exc_halt_t 2)))
 (let (($x326 (= $x2163 (or (exc_halt_t 1) (not (bvsle (_ bv0 6) (bvadd (_ bv62 6) (sc_t 1))))))))
 (let (($x729 (forall ((w (_ BitVec 256)) )(let ((?x8390 (storage_t x_0 x_1 x_MLOAD_0 1 w)))
 (let ((?x5606 (storage_t x_0 x_1 x_MLOAD_0 2 w)))
 (= ?x5606 ?x8390))))
 ))
 (let (($x4585 (forall ((n (_ BitVec 6)) )(let ((?x7505 (stack_t x_0 x_1 x_MLOAD_0 1 n)))
 (let ((?x8849 (stack_t x_0 x_1 x_MLOAD_0 2 n)))
 (let (($x5537 (= ?x8849 ?x7505)))
 (let ((?x8347 (sc_t 1)))
 (let ((?x11486 (bvadd (_ bv62 6) ?x8347)))
 (let (($x2984 (bvsle ?x11486 n)))
 (or $x2984 $x5537))))))))
 ))
 (let ((?x9856 (used_gas_t x_0 x_1 x_MLOAD_0 2)))
 (let (($x4650 (= ?x9856 (+ 3 (used_gas_t x_0 x_1 x_MLOAD_0 1)))))
 (let ((?x8347 (sc_t 1)))
 (let ((?x11486 (bvadd (_ bv62 6) ?x8347)))
 (let ((?x5049 (stack_t x_0 x_1 x_MLOAD_0 1 ?x11486)))
 (let ((?x1086 (bvadd (_ bv63 6) ?x8347)))
 (let ((?x3262 (stack_t x_0 x_1 x_MLOAD_0 1 ?x1086)))
 (let (($x9202 (forall ((w (_ BitVec 256)) )(let ((?x9986 (storage_t x_0 x_1 x_MLOAD_0 0 w)))
 (let ((?x8390 (storage_t x_0 x_1 x_MLOAD_0 1 w)))
 (= ?x8390 ?x9986))))
 ))
 (let (($x451 (forall ((n (_ BitVec 6)) )(let ((?x160 (stack_t x_0 x_1 x_MLOAD_0 0 n)))
 (let ((?x7505 (stack_t x_0 x_1 x_MLOAD_0 1 n)))
 (let (($x9923 (= ?x7505 ?x160)))
 (or (bvsle (bvadd (_ bv62 6) (sc_t 0)) n) $x9923)))))
 ))
 (let ((?x1905 (used_gas_t x_0 x_1 x_MLOAD_0 1)))
 (let (($x3655 (= ?x1905 (+ 3 ?x136))))
 (let (($x10101 (= $x11317 (or (exc_halt_s 4) (not (bvsle (_ bv0 6) (bvadd (_ bv63 6) (sc_s 4))))))))
 (let (($x5240 (forall ((w (_ BitVec 256)) )(let ((?x964 (storage_s x_0 x_1 x_MLOAD_0 4 w)))
 (let ((?x2399 (storage_s x_0 x_1 x_MLOAD_0 5 w)))
 (= ?x2399 ?x964))))
 ))
 (let (($x624 (forall ((n (_ BitVec 6)) )(let ((?x2738 (stack_s x_0 x_1 x_MLOAD_0 4 n)))
 (let ((?x2086 (stack_s x_0 x_1 x_MLOAD_0 5 n)))
 (let (($x10096 (= ?x2086 ?x2738)))
 (or (bvsle (bvadd (_ bv63 6) (sc_s 4)) n) $x10096)))))
 ))
 (let ((?x4305 (sc_s 4)))
 (let ((?x6745 (bvadd (_ bv63 6) ?x4305)))
 (let (($x11286 (= ?x4319 ?x6745)))
 (let ((?x378 (used_gas_s x_0 x_1 x_MLOAD_0 5)))
 (let (($x7172 (exc_halt_s 4)))
 (let (($x4712 (= $x7172 (or (exc_halt_s 3) (not (bvsle (_ bv0 6) (bvadd (_ bv62 6) (sc_s 3))))))))
 (let (($x11616 (forall ((w (_ BitVec 256)) )(let ((?x8942 (storage_s x_0 x_1 x_MLOAD_0 3 w)))
 (let ((?x964 (storage_s x_0 x_1 x_MLOAD_0 4 w)))
 (= ?x964 ?x8942))))
 ))
 (let (($x3030 (forall ((n (_ BitVec 6)) )(let ((?x11561 (stack_s x_0 x_1 x_MLOAD_0 3 n)))
 (let ((?x2738 (stack_s x_0 x_1 x_MLOAD_0 4 n)))
 (let (($x5627 (= ?x2738 ?x11561)))
 (let ((?x275 (sc_s 3)))
 (let ((?x1922 (bvadd (_ bv62 6) ?x275)))
 (let (($x2009 (bvsle ?x1922 n)))
 (or $x2009 $x5627))))))))
 ))
 (let ((?x275 (sc_s 3)))
 (let (($x10151 (= ?x4305 ?x275)))
 (let ((?x11815 (used_gas_s x_0 x_1 x_MLOAD_0 4)))
 (let (($x10538 (= ?x11815 (+ 3 (used_gas_s x_0 x_1 x_MLOAD_0 3)))))
 (let ((?x891 (bvadd (_ bv63 6) ?x275)))
 (let ((?x8045 (stack_s x_0 x_1 x_MLOAD_0 3 ?x891)))
 (let ((?x3389 (bvadd (_ bv62 6) ?x4305)))
 (let ((?x5041 (stack_s x_0 x_1 x_MLOAD_0 4 ?x3389)))
 (let ((?x1922 (bvadd (_ bv62 6) ?x275)))
 (let ((?x11662 (stack_s x_0 x_1 x_MLOAD_0 3 ?x1922)))
 (let ((?x5817 (stack_s x_0 x_1 x_MLOAD_0 4 ?x6745)))
 (let (($x292 (exc_halt_s 3)))
 (let (($x9085 (= $x292 (or (exc_halt_s 2) (not (bvsle (_ bv0 6) (bvadd (_ bv63 6) (sc_s 2))))))))
 (let (($x7352 (forall ((w (_ BitVec 256)) )(let ((?x1568 (storage_s x_0 x_1 x_MLOAD_0 2 w)))
 (let ((?x8942 (storage_s x_0 x_1 x_MLOAD_0 3 w)))
 (= ?x8942 ?x1568))))
 ))
 (let (($x6200 (forall ((n (_ BitVec 6)) )(let ((?x11570 (stack_s x_0 x_1 x_MLOAD_0 2 n)))
 (let ((?x11561 (stack_s x_0 x_1 x_MLOAD_0 3 n)))
 (let (($x10649 (= ?x11561 ?x11570)))
 (or (bvsle (bvadd (_ bv63 6) (sc_s 2)) n) $x10649)))))
 ))
 (let ((?x218 (sc_s 2)))
 (let (($x2026 (= ?x275 ?x218)))
 (let ((?x3930 (used_gas_s x_0 x_1 x_MLOAD_0 3)))
 (let (($x5162 (= ?x3930 (+ 3 (used_gas_s x_0 x_1 x_MLOAD_0 2)))))
 (let ((?x8766 (bvadd (_ bv63 6) ?x218)))
 (let ((?x9671 (stack_s x_0 x_1 x_MLOAD_0 2 ?x8766)))
 (let (($x3738 (not (bvsle (_ bv0 6) (bvadd (_ bv63 6) (sc_s 1))))))
 (let (($x419 (not (= ((_ extract 6 6) (bvadd (_ bv1 7) (concat (_ bv0 1) (sc_s 1)))) (_ bv0 1)))))
 (let (($x189 (exc_halt_s 1)))
 (let (($x247 (exc_halt_s 2)))
 (let (($x7765 (= $x247 (or $x189 $x419 $x3738))))
 (let (($x7448 (forall ((w (_ BitVec 256)) )(let ((?x1546 (storage_s x_0 x_1 x_MLOAD_0 1 w)))
 (let ((?x1568 (storage_s x_0 x_1 x_MLOAD_0 2 w)))
 (= ?x1568 ?x1546))))
 ))
 (let (($x11373 (forall ((n (_ BitVec 6)) )(let ((?x154 (sc_s 1)))
 (let ((?x7271 (bvadd (_ bv63 6) ?x154)))
 (let (($x8363 (bvsle ?x7271 n)))
 (let ((?x9403 (stack_s x_0 x_1 x_MLOAD_0 1 n)))
 (let ((?x11570 (stack_s x_0 x_1 x_MLOAD_0 2 n)))
 (let (($x469 (= ?x11570 ?x9403)))
 (or $x469 $x8363))))))))
 ))
 (let (($x2550 (= ?x218 (bvadd (_ bv1 6) (sc_s 1)))))
 (let ((?x2355 (used_gas_s x_0 x_1 x_MLOAD_0 2)))
 (let (($x3174 (= ?x2355 (+ 3 (used_gas_s x_0 x_1 x_MLOAD_0 1)))))
 (let ((?x154 (sc_s 1)))
 (let ((?x7271 (bvadd (_ bv63 6) ?x154)))
 (let ((?x1764 (stack_s x_0 x_1 x_MLOAD_0 1 ?x7271)))
 (let (($x714 (= $x189 (or $x57 (not (bvsle (_ bv0 6) (bvadd (_ bv62 6) ?x72)))))))
 (let (($x3573 (forall ((w (_ BitVec 256)) )(let ((?x6876 (storage_s x_0 x_1 x_MLOAD_0 0 w)))
 (let ((?x1546 (storage_s x_0 x_1 x_MLOAD_0 1 w)))
 (= ?x1546 ?x6876))))
 ))
 (let (($x4231 (forall ((n (_ BitVec 6)) )(let ((?x72 (sc_s 0)))
 (let ((?x4584 (bvadd (_ bv62 6) ?x72)))
 (let (($x9591 (bvsle ?x4584 n)))
 (let ((?x8095 (stack_s x_0 x_1 x_MLOAD_0 0 n)))
 (let ((?x9403 (stack_s x_0 x_1 x_MLOAD_0 1 n)))
 (let (($x4381 (= ?x9403 ?x8095)))
 (or $x4381 $x9591))))))))
 ))
 (let ((?x1278 (used_gas_s x_0 x_1 x_MLOAD_0 1)))
 (let (($x4272 (= ?x1278 (+ 3 ?x5127))))
 (let ((?x4584 (bvadd (_ bv62 6) ?x72)))
 (let ((?x5214 (stack_s x_0 x_1 x_MLOAD_0 0 ?x4584)))
 (let ((?x4397 (bvadd (_ bv63 6) ?x72)))
 (let ((?x4536 (stack_s x_0 x_1 x_MLOAD_0 0 ?x4397)))
 (let (($x8744 (forall ((w0 (_ BitVec 256)) )(let ((?x9260 (ite (= (stack_s x_0 x_1 x_MLOAD_0 2 (bvadd (_ bv63 6) (sc_s 2))) w0) x_MLOAD_0 (_ bv0 256))))
 (let ((?x11416 (f_MLOAD x_0 x_1 x_MLOAD_0 w0)))
 (= ?x11416 ?x9260))))
 ))
 (let (($x9990 (forall ((w (_ BitVec 256)) )(let ((?x6876 (storage_s x_0 x_1 x_MLOAD_0 0 w)))
 (= ?x6876 (_ bv0 256))))
 ))
 (let (($x5142 (= ?x5127 0)))
 (let (($x11443 (not $x57)))
 (let (($x2777 (= (stack_s x_0 x_1 x_MLOAD_0 0 (_ bv1 6)) x_1)))
 (let (($x1697 (= (stack_s x_0 x_1 x_MLOAD_0 0 (_ bv0 6)) x_0)))
 (let (($x11128 (= ?x72 (_ bv2 6))))
 (and $x11128 $x1697 $x2777 $x11443 $x5142 $x9990 $x8744 (= ?x1764 (bvadd ?x4536 ?x5214)) $x4272 (= ?x154 ?x4397) $x4231 $x3573 $x714 (= ?x9671 ?x1764) (= (stack_s x_0 x_1 x_MLOAD_0 2 ?x7271) ?x1764) $x3174 $x2550 $x11373 $x7448 $x7765 (= ?x8045 (f_MLOAD x_0 x_1 x_MLOAD_0 ?x9671)) $x5162 $x2026 $x6200 $x7352 $x9085 (= ?x5817 ?x11662) (= ?x5041 ?x8045) $x10538 $x10151 $x3030 $x11616 $x4712 (= ?x378 (+ 2 ?x11815)) $x11286 $x624 $x5240 $x10101 (= ?x3262 (stack_t x_0 x_1 x_MLOAD_0 0 (bvadd (_ bv62 6) ?x63))) (= ?x5049 (stack_t x_0 x_1 x_MLOAD_0 0 (bvadd (_ bv63 6) ?x63))) $x3655 (= ?x8347 ?x63) $x451 $x9202 (= (exc_halt_t 1) (or $x56 (not (bvsle (_ bv0 6) (bvadd (_ bv62 6) ?x63))))) (= ?x6495 (bvadd ?x3262 ?x5049)) $x4650 (= ?x2714 ?x1086) $x4585 $x729 $x326 (= ?x3715 (f_MLOAD x_0 x_1 x_MLOAD_0 ?x6495)) $x567 $x5711 $x5609 $x3153 $x9665 $x73 $x9272 $x58 $x10648 $x3688 $x2459)))))))))))))))))))))))))))))))))))))))))))))))))))))))))))))))))))))))))))))))))))))))))))))))))))))))))))))
 )
(check-sat)
(get-proof)
